
--- Job uniform_network_charge.gms Start 10/08/21 14:56:44 35.2.0 r33388c4 WEX-WEI x86 64bit/MS Windows
--- Applying:
    C:\Program Files\GAMS-35\gmsprmNT.txt
--- GAMS Parameters defined
    Input "C:\Users\ansel\OneDrive\PhD\2 - Where to place new power generation\Three node models\uniform_network_charge.gms"
    PageSize 0
    ScrDir "C:\Users\ansel\OneDrive\PhD\2 - Where to place new power generation\Three node models\225a\"
    SysDir "C:\Program Files\GAMS-35\"
    LogOption 3
    ErrMsg 1
    ErrorLog 99
    IDE 1
    LstTitleLeftAligned 1
Licensee: GAMS Community License for Anselm Eicke        G210709|0002AO-GEN
          Hertie School of Governance GmbH                           CL1515
          C:\Users\ansel\OneDrive\Dokumente\GAMS\gamslice.txt
          Anselm Eicke, eicke@hertie-school.org                            
          Community license for demonstration and instructional purposes only
GAMS 35.2.0   Copyright (C) 1987-2021 GAMS Development. All rights reserved
--- Starting compilation
--- uniform_network_charge.gms(84) 3 Mb
--- GDXin=C:\Users\ansel\OneDrive\PhD\2 - Where to place new power generation\Three node models\in.gdx
--- GDX File ($gdxIn) C:\Users\ansel\OneDrive\PhD\2 - Where to place new power generation\Three node models\in.gdx
--- uniform_network_charge.gms(312) 3 Mb
--- Starting execution: elapsed 0:00:00.020
--- uniform_network_charge.gms(295) 4 Mb
--- Generating MIQCP model LOCI
--- uniform_network_charge.gms(298) 6 Mb
---   1,009 rows  746 columns  2,793 non-zeroes
---   168 nl-code  28 nl-non-zeroes
---   206 discrete-columns
--- uniform_network_charge.gms(298) 4 Mb
--- Executing CPLEX (Solvelink=2): elapsed 0:00:00.030

IBM ILOG CPLEX   35.2.0 r33388c4 Released Jun 02, 2021 WEI x86 64bit/MS Window

--- *** This solver runs with a community license. No commercial use.
--- The search will stop after 25000000 nodes.
--- Space for names approximately 0.05 Mb
--- Use option 'names no' to turn use of names off
--- GMO memory 0.79 Mb (peak 0.80 Mb)
--- Dictionary memory 0.00 Mb
--- Cplex 20.1.0.1 link memory 0.03 Mb (peak 0.13 Mb)
--- Starting Cplex

Version identifier: 20.1.0.1 | 2021-04-07 | 3a818710c
CPXPARAM_Advance                                 0
CPXPARAM_Threads                                 1
CPXPARAM_MIP_Display                             4
CPXPARAM_MIP_Limits_Nodes                        25000000
CPXPARAM_TimeLimit                               40000
CPXPARAM_MIP_Tolerances_AbsMIPGap                0
Generic callback                                 0x50
Tried aggregator 2 times.
MIQP Presolve eliminated 319 rows and 83 columns.
MIQP Presolve modified 288 coefficients.
Aggregator did 21 substitutions.
Reduced MIQP has 668 rows, 640 columns, and 1964 nonzeros.
Reduced MIQP has 184 binaries, 0 generals, 0 SOSs, and 0 indicators.
Reduced MIQP objective Q matrix has 48 nonzeros.
Presolve time = 0.00 sec. (1.99 ticks)
Probing fixed 0 vars, tightened 73 bounds.
Probing time = 0.00 sec. (0.68 ticks)
Tried aggregator 1 time.
MIQP Presolve modified 75 coefficients.
Reduced MIQP has 668 rows, 640 columns, and 1964 nonzeros.
Reduced MIQP has 184 binaries, 0 generals, 0 SOSs, and 0 indicators.
Reduced MIQP objective Q matrix has 48 nonzeros.
Presolve time = 0.00 sec. (1.08 ticks)
Classifier predicts products in MIQP should be linearized.
Probing fixed 0 vars, tightened 2 bounds.
Probing time = 0.00 sec. (0.49 ticks)
Clique table members: 156.
MIP emphasis: balance optimality and feasibility.
MIP search method: dynamic search.
Parallel mode: none, using 1 thread.
Number of nonzeros in lower triangle of Q = 10
Using Approximate Minimum Degree ordering
Total time for automatic ordering = 0.00 sec. (0.00 ticks)
Summary statistics for factor of Q:
  Rows in Factor            = 28
  Integer space required    = 28
  Total non-zeros in factor = 38
  Total FP ops to factor    = 58
Tried aggregator 1 time.
Aggregator did 184 substitutions.
Number of nonzeros in lower triangle of Q = 10
Using Approximate Minimum Degree ordering
Total time for automatic ordering = 0.00 sec. (0.00 ticks)
Summary statistics for factor of Q:
  Rows in Factor            = 28
  Integer space required    = 28
  Total non-zeros in factor = 38
  Total FP ops to factor    = 58
Reduced QP has 484 rows, 456 columns, and 1596 nonzeros.
Reduced QP objective Q matrix has 48 nonzeros.
Presolve time = 0.00 sec. (0.51 ticks)
Tried aggregator 1 time.
QP Presolve eliminated 10 rows and 10 columns.
QP Presolve added 0 rows and 28 columns.
Reduced QP has 502 rows, 474 columns, and 1642 nonzeros.
Reduced QP objective Q matrix has 18 nonzeros.
Presolve time = 0.00 sec. (0.25 ticks)
Parallel mode: none, using 1 thread for barrier

***NOTE: Found 6 dense columns.

Number of nonzeros in lower triangle of A*A' = 2482
Using Approximate Minimum Degree ordering
Total time for automatic ordering = 0.00 sec. (0.24 ticks)
Summary statistics for Cholesky factor:
  Rows in Factor            = 508
  Integer space required    = 1320
  Total non-zeros in factor = 7055
  Total FP ops to factor    = 143823
 Itn      Primal Obj        Dual Obj  Prim Inf Upper Inf  Dual Inf          
   0   5.6091670e+05   1.6874544e+10  2.39e+05  1.50e+05  3.58e+05
   1   3.4436505e+05   1.1794621e+10  1.66e+05  1.04e+05  2.48e+05
   2   3.1692199e+04   7.7151556e+09  1.07e+05  6.71e+04  1.61e+05
   3  -4.4022232e+05   1.9703708e+09  2.61e+04  1.63e+04  3.91e+04
   4  -4.3298039e+05   1.4059693e+08  1.54e+03  9.62e+02  2.31e+03
   5  -2.8136770e+05   2.0438951e+07  2.18e+02  1.37e+02  3.34e+02
   6  -1.9130081e+05   1.6014380e+07  1.52e+02  9.54e+01  2.33e+02
   7  -5.1290489e+04   4.3671317e+06  3.40e+01  2.13e+01  5.20e+01
   8  -3.6249212e+04   3.1340036e+06  1.08e+01  6.79e+00  1.66e+01
   9   3.3643967e+04   4.7955604e+05  4.06e-01  2.54e-01  6.20e-01
  10   6.3601230e+04   1.3910102e+05  5.41e-02  3.39e-02  8.27e-02
  11   7.5262596e+04   1.0766420e+05  1.86e-02  1.16e-02  2.84e-02
  12   7.9060049e+04   9.4872089e+04  5.92e-03  3.70e-03  9.04e-03
  13   8.1290008e+04   8.6880304e+04  8.72e-04  5.46e-04  1.33e-03
  14   8.2051964e+04   8.3754383e+04  1.70e-04  1.06e-04  2.59e-04
  15   8.2290995e+04   8.2645117e+04  1.21e-05  7.56e-06  1.85e-05
  16   8.2348945e+04   8.2367241e+04  5.55e-07  3.48e-07  8.48e-07
  17   8.2351695e+04   8.2351858e+04  5.92e-09  3.05e-09  6.37e-09
  18   8.2351725e+04   8.2351726e+04  1.12e-08  6.22e-10  3.26e-11
  19   8.2351725e+04   8.2351725e+04  8.59e-09  4.18e-10  2.79e-12
  20   8.2351725e+04   8.2351725e+04  7.04e-09  5.00e-10  2.72e-12
Barrier time = 0.03 sec. (9.07 ticks)

Total time on 1 threads = 0.03 sec. (9.58 ticks)
Barrier time = 0.03 sec. (9.08 ticks)

QP crossover.
  Primal and Dual:  Fixing 208 variables.
  Primal:  Pushed 72, exchanged 114.
  Dual  :  Pushed 14, exchanged 104.
Total crossover time = 0.00 sec. (4.82 ticks)

Total time on 1 threads = 0.03 sec. (14.46 ticks)
Root relaxation solution time = 0.03 sec. (14.46 ticks)

        Nodes                                         Cuts/
   Node  Left     Objective  IInf  Best Integer    Best Bound    ItCnt     Gap

      0     0    82351.7255    91                  82351.7255       20         
      0     0    82351.7255    89                    Cuts: 82      137         
      0     0    82351.7255    89                   Cuts: 153      340         
      0     0    82350.4635    88                   Cuts: 156      478         
      0     2    82350.4635    88                  82342.6918      478         
Elapsed time = 0.28 sec. (167.39 ticks, tree = 0.01 MB, solutions = 0)
     90    76    80959.3609    19                  81663.1098     5339         
                                                  Impl Bds: 6                  
    177   133    79022.8601    36                  81663.1098    10352         
    308   216    infeasible                        81663.1098    16232         
                                                  Impl Bds: 2                  
*   390   105      integral     0    81166.3865    81663.1098    19729    0.61%
Found incumbent of value 81166.386513 after 1.84 sec. (1059.88 ticks)
    440   135    81567.3986     8    81166.3865    81663.0794    20738    0.61%
    600   277    81615.9268     6    81166.3865    81663.0794    23373    0.61%
                                                   MIRcuts: 1                  
*   610+  202                        81502.7146    81663.0794             0.20%
Found incumbent of value 81502.714640 after 2.63 sec. (1417.54 ticks)
    754   293    81616.8743    32    81502.7146    81663.0794    25830    0.20%
   1000   418    81574.5162    10    81502.7146    81651.0859    29690    0.18%

Performing restart 1

Repeating presolve.
Tried aggregator 1 time.
MIQP Presolve modified 2 coefficients.
Reduced MIQP has 668 rows, 640 columns, and 1964 nonzeros.
Reduced MIQP has 184 binaries, 0 generals, 0 SOSs, and 0 indicators.
Reduced MIQP objective Q matrix has 48 nonzeros.
Presolve time = 0.00 sec. (0.91 ticks)
Tried aggregator 1 time.
Reduced MIQP has 668 rows, 640 columns, and 1964 nonzeros.
Reduced MIQP has 184 binaries, 0 generals, 0 SOSs, and 0 indicators.
Reduced MIQP objective Q matrix has 48 nonzeros.
Presolve time = 0.00 sec. (0.82 ticks)
Represolve time = 0.00 sec. (3.21 ticks)
Number of nonzeros in lower triangle of Q = 10
Using Approximate Minimum Degree ordering
Total time for automatic ordering = 0.00 sec. (0.00 ticks)
Summary statistics for factor of Q:
  Rows in Factor            = 28
  Integer space required    = 28
  Total non-zeros in factor = 38
  Total FP ops to factor    = 58
Tried aggregator 1 time.
Aggregator did 109 substitutions.
Number of nonzeros in lower triangle of Q = 10
Using Approximate Minimum Degree ordering
Total time for automatic ordering = 0.00 sec. (0.00 ticks)
Summary statistics for factor of Q:
  Rows in Factor            = 28
  Integer space required    = 28
  Total non-zeros in factor = 38
  Total FP ops to factor    = 58
Reduced QP has 676 rows, 531 columns, and 2307 nonzeros.
Reduced QP objective Q matrix has 48 nonzeros.
Presolve time = 0.00 sec. (0.59 ticks)
Tried aggregator 1 time.
QP Presolve eliminated 10 rows and 10 columns.
QP Presolve added 0 rows and 28 columns.
Reduced QP has 694 rows, 549 columns, and 2353 nonzeros.
Reduced QP objective Q matrix has 18 nonzeros.
Presolve time = 0.00 sec. (0.33 ticks)
Parallel mode: none, using 1 thread for barrier

***NOTE: Found 8 dense columns.

Number of nonzeros in lower triangle of A*A' = 3582
Using Approximate Minimum Degree ordering
Total time for automatic ordering = 0.00 sec. (0.38 ticks)
Summary statistics for Cholesky factor:
  Rows in Factor            = 702
  Integer space required    = 2216
  Total non-zeros in factor = 11474
  Total FP ops to factor    = 235230
 Itn      Primal Obj        Dual Obj  Prim Inf Upper Inf  Dual Inf          
   0   7.6668122e+05   1.6668056e+10  3.50e+05  2.06e+05  5.48e+05
   1   3.4568420e+05   1.1498844e+10  2.39e+05  1.41e+05  3.75e+05
   2   1.3372306e+05   7.5808483e+09  1.56e+05  9.23e+04  2.46e+05
   3  -2.3987734e+05   2.6056250e+09  5.18e+04  3.06e+04  8.13e+04
   4  -3.2042210e+05   1.5010403e+09  2.86e+04  1.69e+04  4.50e+04
   5  -3.9283377e+05   3.0629703e+08  5.26e+03  3.11e+03  8.28e+03
   6  -3.3436659e+05   2.4713609e+07  3.77e+02  2.23e+02  5.93e+02
   7  -1.5569074e+05   1.2096662e+07  1.56e+02  9.19e+01  2.45e+02
   8  -2.1105675e+04   1.6235700e+06  1.06e+01  6.29e+00  1.67e+01
   9   4.9173215e+03   1.3172897e+06  6.11e+00  3.61e+00  9.62e+00
  10   4.9938962e+04   3.6157279e+05  9.30e-01  5.49e-01  1.46e+00
  11   6.7390778e+04   1.6738268e+05  2.08e-01  1.23e-01  3.27e-01
  12   7.3840897e+04   1.3458417e+05  8.22e-02  4.85e-02  1.29e-01
  13   7.6183898e+04   1.1383477e+05  3.62e-03  2.14e-03  5.69e-03
  14   8.0372610e+04   9.3686593e+04  1.20e-03  7.06e-04  1.88e-03
  15   8.1596035e+04   8.6457954e+04  2.21e-04  1.31e-04  3.48e-04
  16   8.2095374e+04   8.3703108e+04  2.57e-05  1.52e-05  4.05e-05
  17   8.2318452e+04   8.2554260e+04  1.96e-06  1.16e-06  3.08e-06
  18   8.2337047e+04   8.2438066e+04  8.41e-07  4.98e-07  1.33e-06
  19   8.2345696e+04   8.2381868e+04  3.04e-07  1.79e-07  4.76e-07
  20   8.2350330e+04   8.2351356e+04  1.15e-08  5.37e-09  1.30e-08
  21   8.2350463e+04   8.2350468e+04  6.89e-09  6.51e-10  6.54e-11
  22   8.2350463e+04   8.2350464e+04  6.40e-09  7.53e-10  3.07e-12
  23   8.2350463e+04   8.2350463e+04  3.86e-09  5.83e-10  2.88e-12
Barrier time = 0.03 sec. (14.73 ticks)

Total time on 1 threads = 0.03 sec. (15.32 ticks)
Barrier time = 0.03 sec. (14.74 ticks)

QP crossover.
  Primal and Dual:  Fixing 283 variables.
  Primal:  Pushed 120, exchanged 139.
  Dual  :  Pushed 17, exchanged 130.
Total crossover time = 0.02 sec. (7.15 ticks)

Total time on 1 threads = 0.05 sec. (22.55 ticks)
   1024     0    82349.5194    79    81502.7146     Cuts: 195    30222    0.18%
   1024     0    82349.0295    95    81502.7146     Cuts: 238    30578    0.18%
   1024     0    82347.7684    96    81502.7146     Cuts: 204    30837    0.18%
   1024     0    82347.7684   103    81502.7146     Cuts: 172    31033    0.18%
   1024     2    81663.1069    69    81502.7146    81651.0859    31033    0.18%
*  1025+    1                        81519.8648    81651.0859             0.16%
Found incumbent of value 81519.864811 after 4.36 sec. (2383.56 ticks)
   1044    11    81650.6350    26    81519.8648    81651.0859    31386    0.16%
   1404   219    81576.4439    19    81519.8648    81643.5748    35824    0.15%
Elapsed time = 5.97 sec. (3519.19 ticks, tree = 0.10 MB, solutions = 3)
*  1534   270      integral     0    81524.8964    81627.0845    37765    0.13%
Found incumbent of value 81524.896392 after 6.34 sec. (3733.88 ticks)
   2064   551    81613.8370    11    81524.8964    81623.6684    49684    0.12%
   2594   645    81525.4734    18    81524.8964    81620.8599    60361    0.12%
   3067   561    81567.5526    12    81524.8964    81611.2721    72014    0.11%
   3443   498    81576.9312    17    81524.8964    81600.2164    83321    0.09%
   4057   743    81581.9104    10    81524.8964    81592.1776    92498    0.08%
   4830  1033        cutoff          81524.8964    81586.0341   100549    0.07%
   5554  1315    81545.7258     5    81524.8964    81584.2647   110666    0.07%
   6409  1585    81539.6016     6    81524.8964    81582.5816   120011    0.07%
   7102  1611    81577.5173     5    81524.8964    81579.9113   128883    0.07%
Elapsed time = 19.78 sec. (12332.81 ticks, tree = 0.75 MB, solutions = 4)
   7838  1547    81576.9534     8    81524.8964    81576.9534   139273    0.06%
   8581  1443    81573.4966     6    81524.8964    81575.0514   146619    0.06%
   9258  1517    81568.3485    15    81524.8964    81570.6087   156353    0.06%
  10015  1523    81565.9477     8    81524.8964    81565.9477   165684    0.05%
  10795  1545        cutoff          81524.8964    81561.5580   174303    0.04%
  11264  1586    81556.6054    14    81524.8964    81560.5387   178204    0.04%

Performing restart 2

Repeating presolve.
Tried aggregator 2 times.
MIQP Presolve eliminated 16 rows and 16 columns.
MIQP Presolve modified 125 coefficients.
Aggregator did 5 substitutions.
Reduced MIQP has 647 rows, 619 columns, and 1908 nonzeros.
Reduced MIQP has 176 binaries, 0 generals, 0 SOSs, and 0 indicators.
Reduced MIQP objective Q matrix has 48 nonzeros.
Presolve time = 0.00 sec. (1.68 ticks)
Tried aggregator 1 time.
MIQP Presolve eliminated 1 rows and 1 columns.
MIQP Presolve modified 106 coefficients.
Reduced MIQP has 646 rows, 618 columns, and 1905 nonzeros.
Reduced MIQP has 175 binaries, 0 generals, 0 SOSs, and 0 indicators.
Reduced MIQP objective Q matrix has 48 nonzeros.
Presolve time = 0.00 sec. (0.92 ticks)
Represolve time = 0.03 sec. (8.25 ticks)
Number of nonzeros in lower triangle of Q = 10
Using Approximate Minimum Degree ordering
Total time for automatic ordering = 0.00 sec. (0.00 ticks)
Summary statistics for factor of Q:
  Rows in Factor            = 28
  Integer space required    = 28
  Total non-zeros in factor = 38
  Total FP ops to factor    = 58
Tried aggregator 1 time.
QP Presolve eliminated 3 rows and 2 columns.
Aggregator did 98 substitutions.
Number of nonzeros in lower triangle of Q = 10
Using Approximate Minimum Degree ordering
Total time for automatic ordering = 0.00 sec. (0.00 ticks)
Summary statistics for factor of Q:
  Rows in Factor            = 28
  Integer space required    = 28
  Total non-zeros in factor = 38
  Total FP ops to factor    = 58
Reduced QP has 641 rows, 518 columns, and 2333 nonzeros.
Reduced QP objective Q matrix has 48 nonzeros.
Presolve time = 0.00 sec. (0.58 ticks)
Tried aggregator 1 time.
QP Presolve eliminated 10 rows and 10 columns.
QP Presolve added 0 rows and 28 columns.
Aggregator did 2 substitutions.
Reduced QP has 657 rows, 534 columns, and 2371 nonzeros.
Reduced QP objective Q matrix has 18 nonzeros.
Presolve time = 0.00 sec. (0.41 ticks)
Parallel mode: none, using 1 thread for barrier

***NOTE: Found 8 dense columns.

Number of nonzeros in lower triangle of A*A' = 3831
Using Approximate Minimum Degree ordering
Total time for automatic ordering = 0.00 sec. (0.42 ticks)
Summary statistics for Cholesky factor:
  Rows in Factor            = 665
  Integer space required    = 2313
  Total non-zeros in factor = 12812
  Total FP ops to factor    = 318056
 Itn      Primal Obj        Dual Obj  Prim Inf Upper Inf  Dual Inf          
   0   8.8591335e+05   9.3669410e+09  2.38e+05  1.77e+05  5.14e+05
   1   5.3418545e+05   6.6461713e+09  1.68e+05  1.25e+05  3.62e+05
   2   2.9997615e+05   4.4422638e+09  1.11e+05  8.24e+04  2.39e+05
   3  -8.4141864e+04   1.0561878e+09  2.47e+04  1.84e+04  5.34e+04
   4  -1.8923346e+05   1.2208869e+08  2.61e+03  1.95e+03  5.63e+03
   5  -1.2960418e+05   3.0723202e+07  5.76e+02  4.30e+02  1.24e+03
   6  -3.1011102e+04   6.5925162e+06  1.07e+02  7.99e+01  2.31e+02
   7   2.5979087e+04   2.6175367e+06  2.81e+01  2.09e+01  6.06e+01
   8   5.6668936e+04   3.7919830e+05  2.88e+00  2.15e+00  6.21e+00
   9   7.1099424e+04   1.5881405e+05  6.56e-01  4.89e-01  1.42e+00
  10   7.6967291e+04   1.1738344e+05  2.43e-01  1.81e-01  5.23e-01
  11   7.8016292e+04   1.0379092e+05  1.68e-03  1.25e-03  3.62e-03
  12   7.9398067e+04   9.5895664e+04  9.94e-04  7.40e-04  2.14e-03
  13   8.0887739e+04   8.6946079e+04  3.16e-04  2.35e-04  6.77e-04
  14   8.1352785e+04   8.3662443e+04  1.03e-04  7.67e-05  2.21e-04
  15   8.1561752e+04   8.2294908e+04  3.13e-05  2.32e-05  6.71e-05
  16   8.1636691e+04   8.1846382e+04  8.91e-06  6.61e-06  1.91e-05
  17   8.1656819e+04   8.1709477e+04  2.23e-06  1.66e-06  4.78e-06
  18   8.1662868e+04   8.1664606e+04  7.10e-08  5.26e-08  1.51e-07
  19   8.1663078e+04   8.1663089e+04  1.62e-09  6.17e-10  2.14e-09
  20   8.1663079e+04   8.1663079e+04  2.54e-09  3.41e-10  1.81e-09
  21   8.1663079e+04   8.1663079e+04  3.85e-09  3.73e-10  1.95e-09
Barrier time = 0.02 sec. (14.52 ticks)

Total time on 1 threads = 0.02 sec. (15.10 ticks)
Barrier time = 0.02 sec. (14.53 ticks)

QP crossover.
  Primal and Dual:  Fixing 261 variables.
  Primal:  Pushed 94, exchanged 142.
  Dual  :  Pushed 21, exchanged 135.
Total crossover time = 0.02 sec. (7.28 ticks)

Total time on 1 threads = 0.03 sec. (22.46 ticks)
  11267     0    81663.0794    71    81524.8964     Cuts: 261   178500    0.04%
  11267     0    81663.0794    70    81524.8964     Cuts: 230   178631    0.04%
  11267     0    81663.0794    64    81524.8964     Cuts: 183   178839    0.04%
  11267     0    81663.0794    58    81524.8964     Cuts: 186   178925    0.04%
  11267     0    81663.0794    57    81524.8964      Cuts: 90   178965    0.04%
  11267     0    81663.0794    58    81524.8964      Cuts: 22   178977    0.04%
  11267     0    81663.0794    58    81524.8964      Cuts: 12   178981    0.04%
  11267     0    81663.0794    58    81524.8964      Cuts: 11   178983    0.04%
  11267     0    81663.0794    58    81524.8964    MIRcuts: 2   178987    0.04%

Repeating presolve.
Tried aggregator 2 times.
MIQP Presolve eliminated 31 rows and 33 columns.
MIQP Presolve modified 80 coefficients.
Aggregator did 6 substitutions.
Reduced MIQP has 609 rows, 579 columns, and 1840 nonzeros.
Reduced MIQP has 153 binaries, 0 generals, 0 SOSs, and 0 indicators.
Reduced MIQP objective Q matrix has 48 nonzeros.
Presolve time = 0.00 sec. (1.56 ticks)
Tried aggregator 1 time.
MIQP Presolve eliminated 16 rows and 16 columns.
MIQP Presolve modified 252 coefficients.
Reduced MIQP has 593 rows, 563 columns, and 1787 nonzeros.
Reduced MIQP has 141 binaries, 0 generals, 0 SOSs, and 0 indicators.
Reduced MIQP objective Q matrix has 48 nonzeros.
Presolve time = 0.00 sec. (1.13 ticks)
Tried aggregator 1 time.
MIQP Presolve modified 93 coefficients.
Reduced MIQP has 593 rows, 563 columns, and 1787 nonzeros.
Reduced MIQP has 141 binaries, 0 generals, 0 SOSs, and 0 indicators.
Reduced MIQP objective Q matrix has 48 nonzeros.
Presolve time = 0.00 sec. (0.76 ticks)
Represolve time = 0.05 sec. (17.57 ticks)
Number of nonzeros in lower triangle of Q = 10
Using Approximate Minimum Degree ordering
Total time for automatic ordering = 0.00 sec. (0.00 ticks)
Summary statistics for factor of Q:
  Rows in Factor            = 28
  Integer space required    = 28
  Total non-zeros in factor = 38
  Total FP ops to factor    = 58
Tried aggregator 1 time.
Aggregator did 86 substitutions.
Number of nonzeros in lower triangle of Q = 10
Using Approximate Minimum Degree ordering
Total time for automatic ordering = 0.00 sec. (0.00 ticks)
Summary statistics for factor of Q:
  Rows in Factor            = 28
  Integer space required    = 28
  Total non-zeros in factor = 38
  Total FP ops to factor    = 58
Reduced QP has 570 rows, 477 columns, and 1954 nonzeros.
Reduced QP objective Q matrix has 48 nonzeros.
Presolve time = 0.00 sec. (0.51 ticks)
Tried aggregator 1 time.
QP Presolve eliminated 10 rows and 10 columns.
QP Presolve added 0 rows and 28 columns.
Aggregator did 3 substitutions.
Reduced QP has 585 rows, 492 columns, and 1988 nonzeros.
Reduced QP objective Q matrix has 18 nonzeros.
Presolve time = 0.00 sec. (0.36 ticks)
Parallel mode: none, using 1 thread for barrier

***NOTE: Found 8 dense columns.

Number of nonzeros in lower triangle of A*A' = 3317
Using Approximate Minimum Degree ordering
Total time for automatic ordering = 0.00 sec. (0.35 ticks)
Summary statistics for Cholesky factor:
  Rows in Factor            = 593
  Integer space required    = 2078
  Total non-zeros in factor = 12124
  Total FP ops to factor    = 338296
 Itn      Primal Obj        Dual Obj  Prim Inf Upper Inf  Dual Inf          
   0   8.0723342e+05   9.8149792e+08  1.57e+05  1.26e+05  4.46e+05
   1   4.4356256e+05   6.4568842e+08  9.82e+04  7.90e+04  2.79e+05
   2   1.4301792e+05   3.1893979e+08  4.14e+04  3.33e+04  1.18e+05
   3  -6.1222948e+04   4.7938310e+07  4.88e+03  3.93e+03  1.39e+04
   4  -5.3436400e+04   2.5377204e+07  2.04e+03  1.64e+03  5.80e+03
   5  -5.3294077e+04   2.3487941e+07  1.73e+03  1.39e+03  4.92e+03
   6  -2.4292195e+04   5.5556548e+06  2.17e+02  1.74e+02  6.13e+02
   7  -2.2726698e+03   4.7461958e+06  1.39e+02  1.12e+02  3.94e+02
   8   3.1982142e+04   1.2811016e+06  2.84e+01  2.27e+01  8.02e+01
   9   5.9082863e+04   3.2165250e+05  2.16e+00  1.73e+00  6.10e+00
  10   7.0934047e+04   1.3840733e+05  3.13e-01  2.51e-01  8.84e-01
  11   7.6620150e+04   1.1258544e+05  1.12e-01  8.98e-02  3.17e-01
  12   7.9132375e+04   9.8078808e+04  3.89e-02  3.12e-02  1.10e-01
  13   8.0488506e+04   8.9496673e+04  1.60e-02  1.28e-02  4.51e-02
  14   8.1040396e+04   8.5366729e+04  4.88e-03  3.91e-03  1.38e-02
  15   8.1154490e+04   8.4315934e+04  1.72e-03  1.38e-03  4.85e-03
  16   8.1466988e+04   8.2390691e+04  4.25e-04  3.40e-04  1.20e-03
  17   8.1517688e+04   8.2254577e+04  3.39e-04  2.71e-04  9.55e-04
  18   8.1573433e+04   8.2016191e+04  2.03e-04  1.63e-04  5.73e-04
  19   8.1649772e+04   8.1713945e+04  2.81e-05  2.25e-05  7.92e-05
  20   8.1659244e+04   8.1683410e+04  1.06e-05  8.50e-06  2.99e-05
  21   8.1661753e+04   8.1669132e+04  3.22e-06  2.58e-06  9.09e-06
  22   8.1663044e+04   8.1663197e+04  6.31e-08  4.98e-08  1.77e-07
  23   8.1663079e+04   8.1663080e+04  3.99e-08  3.48e-10  4.31e-09
  24   8.1663079e+04   8.1663079e+04  1.47e-07  2.46e-11  3.41e-09
  25   8.1663079e+04   8.1663079e+04  3.43e-08  1.56e-11  3.14e-09
Barrier time = 0.01 sec. (15.50 ticks)

Total time on 1 threads = 0.01 sec. (16.01 ticks)
Barrier time = 0.01 sec. (15.51 ticks)

QP crossover.
  Primal and Dual:  Fixing 222 variables.
  Primal:  Pushed 63, exchanged 116.
  Dual  :  Pushed 40, exchanged 109.
Total crossover time = 0.02 sec. (5.36 ticks)

Total time on 1 threads = 0.03 sec. (21.45 ticks)
  11267     0    81663.0794    38    81524.8964     Cuts: 227   179098    0.04%
  11267     0    81663.0794    38    81524.8964      Cuts: 81   179251    0.04%
  11267     0    81663.0794    34    81524.8964      Cuts: 59   179315    0.04%
  11267     0    81663.0794    35    81524.8964      Cuts: 38   179339    0.04%
  11267     0    81663.0794    31    81524.8964      Cuts: 28   179357    0.04%
  11267     0    81663.0794    35    81524.8964      Cuts: 18   179375    0.04%
  11267     0    81663.0794    36    81524.8964      Cuts: 12   179389    0.04%
  11267     0    81663.0794    36    81524.8964    MIRcuts: 1   179391    0.04%
  11267     1    81660.0822    24    81524.8964    81560.2782   179418    0.04%
  11568    92    81438.5517     5    81524.8964    81560.2782   182313    0.04%
  12131    85        cutoff          81524.8964    81560.2782   189882    0.04%

Clique cuts applied:  3
Cover cuts applied:  1
Implied bound cuts applied:  10
Flow cuts applied:  24
Mixed integer rounding cuts applied:  16

Root node processing (before b&c):
  Real time             =    0.28 sec. (167.39 ticks)
Sequential b&c:
  Real time             =   35.39 sec. (24036.23 ticks)
                          ------------
Total (root+branch&cut) =   35.67 sec. (24203.62 ticks)

--- MIQP status (102): integer optimal, tolerance.
--- Cplex Time: 35.67sec (det. 24203.63 ticks)

--- Fixing integer variables and solving final QP...
--- The search will stop after 25000000 nodes.

Version identifier: 20.1.0.1 | 2021-04-07 | 3a818710c
CPXPARAM_Advance                                 2
CPXPARAM_Threads                                 1
CPXPARAM_MIP_Display                             4
CPXPARAM_MIP_Limits_Nodes                        25000000
CPXPARAM_TimeLimit                               40000
CPXPARAM_MIP_Tolerances_AbsMIPGap                0
Number of nonzeros in lower triangle of Q = 10
Using Approximate Minimum Degree ordering
Total time for automatic ordering = 0.00 sec. (0.00 ticks)
Summary statistics for factor of Q:
  Rows in Factor            = 28
  Integer space required    = 28
  Total non-zeros in factor = 38
  Total FP ops to factor    = 58
Tried aggregator 1 time.
QP Presolve eliminated 768 rows and 517 columns.
Aggregator did 113 substitutions.
Number of nonzeros in lower triangle of Q = 7
Using Approximate Minimum Degree ordering
Total time for automatic ordering = 0.00 sec. (0.00 ticks)
Summary statistics for factor of Q:
  Rows in Factor            = 20
  Integer space required    = 20
  Total non-zeros in factor = 27
  Total FP ops to factor    = 41
Reduced QP has 127 rows, 116 columns, and 481 nonzeros.
Reduced QP objective Q matrix has 34 nonzeros.
Presolve time = 0.00 sec. (0.68 ticks)

Iteration log . . .
Iteration:     1    Phase I obj   = -152651528384.036957
Iteration:    20    Objective     =        252304.357212
Iteration:    85    Objective     =         90733.753407
Iteration:   146    Objective     =         81718.232143
Iteration:   168    Objective     =         81539.076040
Iteration:   179    Phase I obj   =         81524.896392
Markowitz threshold set to 0.1
Iteration:   187    Phase I obj   =         81524.896392
Iteration:   189    Phase I obj   =         81524.896392

--- Fixed MIQP status (1): optimal.
--- Cplex Time: 0.00sec (det. 4.89 ticks)


Solution satisfies tolerances
MIP Solution:        81524.896392    (198249 iterations, 12834 nodes)
Final Solve:         81524.896392    (190 iterations)

Best possible:       81532.895247
Absolute gap:            7.998855
Relative gap:            0.000098

--- Reading solution for model LOCI
--- Executing after solve: elapsed 0:00:35.870
--- uniform_network_charge.gms(312) 4 Mb
--- GDX File (execute_unload) C:\Users\ansel\OneDrive\PhD\2 - Where to place new power generation\Three node models\instrument.gdx
*** Status: Normal completion
--- Job uniform_network_charge.gms Stop 10/08/21 14:57:20 elapsed 0:00:35.870
